3048.33
0 0 0 0 0 0 41 0 65 0 0 0 80 0 0 0 0 0 0 65 0 0 0 0 0 0 0 0 0 0 0 0 0 41 0 0 41 44 0 0 0 65 0 0 0 0 0 0 0 80 0 0 0 0 0 0 0 65 0 44 0 0 0 65 0 0 0 0 0 41 0 0 0 0 41 0 80 0 0 0 0 0 80 41 0 0 0 65 44 0 0 0 0 0 0 0 0 0 0 80 
